rust/resources/kb2.lp
\Problem name: kb2.mps

Minimize
 FAT7..J.: - 16.5 D3T...BW + 12 _EN4...BW + 16 _ETO...BW + 0.08757 QPB73EBW
           + 0.08757 QPB73RBW
Subject To
 BAL...BW: - BAL.3EBW - BAL.3PBW - BAL.3RBW + _EAL...BW  = 0
 BHC...BW: - BHC.3EBW - BHC.3PBW - BHC.3RBW + _EHC...BW  = 0
 BLC...BW: - BLC.3EBW - BLC.3PBW - BLC.3RBW + _ELC...BW  = 0
 BLV...BW: - BLV.3EBW - BLV.3PBW - BLV.3RBW + _ELV...BW  = 0
 BN4...BW: - BN4.3EBW - BN4.3PBW - BN4.3RBW + _EN4...BW  = 0
 BP8...BW: - BP8.3EBW - BP8.3PBW - BP8.3RBW + _EP8...BW  = 0
 BTO...BW: - BTO.3EBW - BTO.3PBW - BTO.3RBW + _ETO...BW  = 0
 B3E...BW: - 0.29 M3..3TBW + QVO73EBW  = 0
 B3P...BW: - 0.17 M3..3TBW + QVO73PBW  = 0
 B3R...BW: - 0.54 M3..3TBW + QVO73RBW  = 0
 B3T...BW: - D3T...BW + M3..3TBW  = 0
 B3E.VOBW: BAL.3EBW + BHC.3EBW + BLC.3EBW + BLV.3EBW + BN4.3EBW + BP8.3EBW
           + BTO.3EBW - QVO73EBW  = 0
 B3P.VOBW: BAL.3PBW + BHC.3PBW + BLC.3PBW + BLV.3PBW + BN4.3PBW + BP8.3PBW
           + BTO.3PBW - QVO73PBW  = 0
 B3R.VOBW: BAL.3RBW + BHC.3RBW + BLC.3RBW + BLV.3RBW + BN4.3RBW + BP8.3RBW
           + BTO.3RBW - QVO73RBW  = 0
 HMH.3EBW: 99.18559 BAL.3EBW + 82.04308 BHC.3EBW + 83.9937 BLC.3EBW
           + 85.61385 BLV.3EBW + 98.06433 BN4.3EBW + 91.62642 BP8.3EBW
           + 90.49629 BTO.3EBW + 1.23842 QPB73EBW - 2.10531 QVO73EBW - WMO73EBW
           >= 0
 HML.3EBW: 94.63568 BAL.3EBW + 79.40534 BHC.3EBW + 80.37873 BLC.3EBW
           + 80.36789 BLV.3EBW + 92.71594 BN4.3EBW + 90.03844 BP8.3EBW
           + 89.10432 BTO.3EBW + 3.42918 QPB73EBW - 1.37167 QVO73EBW - WMO73EBW
           >= 0
 HMM.3EBW: 98.08976 BAL.3EBW + 81.47009 BHC.3EBW + 83.22026 BLC.3EBW
           + 84.5191 BLV.3EBW + 96.86628 BN4.3EBW + 91.26611 BP8.3EBW
           + 90.14887 BTO.3EBW + 1.55751 QPB73EBW - 2.02477 QVO73EBW - WMO73EBW
           >= 0
 HRH.3EBW: 103.0581 BAL.3EBW + 95.02163 BHC.3EBW + 98.64634 BLC.3EBW
           + 88.46612 BLV.3EBW + 101.66321 BN4.3EBW + 102.51818 BP8.3EBW
           + 106.46719 BTO.3EBW + 1.27141 QPB73EBW - 2.16139 QVO73EBW
           - WRO73EBW >= 0
 HRL.3EBW: 98.70277 BAL.3EBW + 92.89535 BHC.3EBW + 95.38345 BLC.3EBW
           + 82.8797 BLV.3EBW + 97.32996 BN4.3EBW + 101.17309 BP8.3EBW
           + 105.47666 BTO.3EBW + 2.52143 QPB73EBW - 1.00857 QVO73EBW
           - WRO73EBW >= 0
 HRM.3EBW: 102.02191 BAL.3EBW + 94.57094 BHC.3EBW + 97.97965 BLC.3EBW
           + 87.33298 BLV.3EBW + 100.65 BN4.3EBW + 102.21363 BP8.3EBW
           + 106.21918 BTO.3EBW + 1.54954 QPB73EBW - 2.0144 QVO73EBW - WRO73EBW
           >= 0
 HMH.3RBW: 99.18559 BAL.3RBW + 82.04308 BHC.3RBW + 83.9937 BLC.3RBW
           + 85.61385 BLV.3RBW + 98.06433 BN4.3RBW + 91.62642 BP8.3RBW
           + 90.49629 BTO.3RBW + 1.75028 QPB73RBW - 2.97548 QVO73RBW - WMO73RBW
           >= 0
 HML.3RBW: 95.17073 BAL.3RBW + 79.72867 BHC.3RBW + 80.82888 BLC.3RBW
           + 81.03825 BLV.3RBW + 93.41749 BN4.3RBW + 90.22411 BP8.3RBW
           + 89.25587 BTO.3RBW + 4.41873 QPB73RBW - 2.20937 QVO73RBW - WMO73RBW
           >= 0
 HMM.3RBW: 97.11016 BAL.3RBW + 80.94047 BHC.3RBW + 82.49926 BLC.3RBW
           + 83.48458 BLV.3RBW + 95.86635 BN4.3RBW + 90.94112 BP8.3RBW
           + 89.84584 BTO.3RBW + 2.74531 QPB73RBW - 2.74531 QVO73RBW - WMO73RBW
           >= 0
 HRH.3RBW: 103.0581 BAL.3RBW + 95.02163 BHC.3RBW + 98.64634 BLC.3RBW
           + 88.46612 BLV.3RBW + 101.66321 BN4.3RBW + 102.51818 BP8.3RBW
           + 106.46719 BTO.3RBW + 1.64391 QPB73RBW - 2.79464 QVO73RBW
           - WRO73RBW >= 0
 HRL.3RBW: 99.19039 BAL.3RBW + 93.16124 BHC.3RBW + 95.80861 BLC.3RBW
           + 83.61375 BLV.3RBW + 97.86876 BN4.3RBW + 101.32905 BP8.3RBW
           + 105.58392 BTO.3RBW + 4.31949 QPB73RBW - 2.15975 QVO73RBW
           - WRO73RBW >= 0
 HRM.3RBW: 101.0885 BAL.3RBW + 94.14769 BHC.3RBW + 97.34183 BLC.3RBW
           + 86.24515 BLV.3RBW + 99.77765 BN4.3RBW + 101.93754 BP8.3RBW
           + 106.0019 BTO.3RBW + 2.62696 QPB73RBW - 2.62696 QVO73RBW - WRO73RBW
           >= 0
 NOI.3EBW: - 107.52 QVO73EBW + 0.73 WMO73EBW + 0.41 WRO73EBW >= 0
 NOI.3PBW: - 97.41 QVO73PBW + 0.84 WMO73PBW + 0.27 WRO73PBW >= 0
 NOI.3RBW: - 98.5 QVO73RBW + 0.81 WMO73RBW + 0.31 WRO73RBW >= 0
 WMO.3PBW: 91.96313 BAL.3PBW + 78.09095 BHC.3PBW + 80.74635 BLC.3PBW
           + 77.37441 BLV.3PBW + 88.35436 BN4.3PBW + 88.58029 BP8.3PBW
           + 88.18188 BTO.3PBW - WMO73PBW  = 0
 WRO.3PBW: 96.13556 BAL.3PBW + 90.99637 BHC.3PBW + 93.95665 BLC.3PBW
           + 79.78002 BLV.3PBW + 94.11062 BN4.3PBW + 99.83178 BP8.3PBW
           + 105.07558 BTO.3PBW - WRO73PBW  = 0
 XPB.3ABW: QPB73EBW - 1.5 QVO73EBW - 1.5 QVO73PBW + QPB73RBW - 1.5 QVO73RBW
           <= 0
 XCV.3EBW: 6 BAL.3EBW - 2 BHC.3EBW + 7 BLC.3EBW + 14 BLV.3EBW + 80 BN4.3EBW
           + 4 BP8.3EBW - BTO.3EBW - 16 QVO73EBW <= 0
 XPB.3EBW: QPB73EBW - 1.7 QVO73EBW <= 0
 XRV.3EBW: 4 BAL.3EBW + 0.5 BHC.3EBW + 4.5 BLC.3EBW + 7.2 BLV.3EBW
           + 70 BN4.3EBW + 3.6 BP8.3EBW + 1.2 BTO.3EBW - 12 QVO73EBW <= 0
 X12.3EBW: 50.3 BAL.3EBW - 15.6 BHC.3EBW + 57.9 BLC.3EBW + 102.3 BLV.3EBW
           + 113 BN4.3EBW + 28.9 BP8.3EBW + 5 BTO.3EBW - 61 QVO73EBW <= 0
 XCV.3PBW: 6 BAL.3PBW - 2 BHC.3PBW + 7 BLC.3PBW + 14 BLV.3PBW + 80 BN4.3PBW
           + 4 BP8.3PBW - BTO.3PBW - 16 QVO73PBW <= 0
 XRV.3PBW: 4 BAL.3PBW + 0.5 BHC.3PBW + 4.5 BLC.3PBW + 7.2 BLV.3PBW
           + 70 BN4.3PBW + 3.6 BP8.3PBW + 1.2 BTO.3PBW - 12 QVO73PBW <= 0
 X12.3PBW: 50.3 BAL.3PBW - 15.6 BHC.3PBW + 57.9 BLC.3PBW + 102.3 BLV.3PBW
           + 113 BN4.3PBW + 28.9 BP8.3PBW + 5 BTO.3PBW - 61 QVO73PBW <= 0
 XCV.3RBW: 6 BAL.3RBW - 2 BHC.3RBW + 7 BLC.3RBW + 14 BLV.3RBW + 80 BN4.3RBW
           + 4 BP8.3RBW - BTO.3RBW - 16 QVO73RBW <= 0
 XPB.3RBW: QPB73RBW - 1.7 QVO73RBW <= 0
 XRV.3RBW: 4 BAL.3RBW + 0.5 BHC.3RBW + 4.5 BLC.3RBW + 7.2 BLV.3RBW
           + 70 BN4.3RBW + 3.6 BP8.3RBW + 1.2 BTO.3RBW - 12 QVO73RBW <= 0
 X12.3RBW: 50.3 BAL.3RBW - 15.6 BHC.3RBW + 57.9 BLC.3RBW + 102.3 BLV.3RBW
           + 113 BN4.3RBW + 28.9 BP8.3RBW + 5 BTO.3RBW - 61 QVO73RBW <= 0
Bounds
 0 <= BHC.3EBW <= 10
 0 <= D3T...BW <= 200
 0 <= _EAL...BW <= 10
 0 <= _EHC...BW <= 20
 0 <= _ELC...BW <= 25
 0 <= _ELV...BW <= 12
 0 <= _EN4...BW <= 100
 0 <= _EP8...BW <= 35
 0 <= _ETO...BW <= 5
End
